
Log started (V12.8.0.0) Wed Aug 29 20:26:31 2018

New value for time limit in seconds: 500
CPXPARAM_TimeLimit                               500
CPXPARAM_Emphasis_Numerical                      1
CPXPARAM_Parallel                                -1
CPXPARAM_Benders_Strategy                        3
CPXPARAM_MIP_Tolerances_Integrality              9.9999999999999995e-08
CPXPARAM_MIP_Pool_AbsGap                         0
Tried aggregator 4 times.
MIP Presolve eliminated 8264 rows and 3792 columns.
Aggregator did 1213 substitutions.
Reduced MIP has 2389 rows, 2443 columns, and 8890 nonzeros.
Reduced MIP has 25 binaries, 0 generals, 0 SOSs, and 0 indicators.
Presolve time = 0.01 sec. (14.94 ticks)
Found incumbent of value 0.000000 after 0.03 sec. (23.73 ticks)
Tried aggregator 1 time.
Reduced MIP has 2389 rows, 2443 columns, and 8890 nonzeros.
Reduced MIP has 25 binaries, 0 generals, 0 SOSs, and 0 indicators.
Presolve time = 0.00 sec. (2.44 ticks)

        Nodes                                         Cuts/
   Node  Left     Objective  IInf  Best Integer    Best Bound    ItCnt     Gap

      0     0       10.0000                       Benders: 10        0         
      0     0       10.0000                        Benders: 1        3         
      0     0       10.0000                        Benders: 1        4         
      0     0       10.0000                        Benders: 3        6         
      0     0       10.0000                        Benders: 4        7         
      0     0       10.0000                        Benders: 5       10         
      0     0       10.0000                        Benders: 2       13         
      0     0       10.0000                        Benders: 3       14         
      0     0       10.0000                        Benders: 1       15         
Tried aggregator 1 time.
MIP Presolve eliminated 1 rows and 0 columns.
MIP Presolve modified 308 coefficients.
Reduced MIP has 30 rows, 35 columns, and 203 nonzeros.
Reduced MIP has 25 binaries, 0 generals, 0 SOSs, and 0 indicators.
Presolve time = 0.00 sec. (0.06 ticks)
Probing time = 0.00 sec. (0.01 ticks)
Tried aggregator 1 time.
Reduced MIP has 30 rows, 35 columns, and 203 nonzeros.
Reduced MIP has 25 binaries, 0 generals, 0 SOSs, and 0 indicators.
Presolve time = 0.00 sec. (0.05 ticks)
Probing time = 0.00 sec. (0.01 ticks)
MIP emphasis: balance optimality and feasibility.
MIP search method: dynamic search.
Parallel mode: opportunistic, using up to 8 threads.
Root relaxation solution time = 0.00 sec. (0.06 ticks)
*     0+    0                            0.0000       10.0000              --- 
      0     0       10.0000     3        0.0000       10.0000       35     --- 
      0     0       10.0000     4        0.0000      Fract: 1       38     --- 
      0     0       10.0000     5        0.0000      Fract: 2       42     --- 
      0     0       10.0000     6        0.0000      Fract: 2       44     --- 

Repeating presolve.
Tried aggregator 1 time.
MIP Presolve modified 2 coefficients.
Reduced MIP has 30 rows, 35 columns, and 203 nonzeros.
Reduced MIP has 25 binaries, 0 generals, 0 SOSs, and 0 indicators.
Presolve time = 0.00 sec. (0.07 ticks)
Probing time = 0.00 sec. (0.01 ticks)
Tried aggregator 1 time.
Reduced MIP has 30 rows, 35 columns, and 203 nonzeros.
Reduced MIP has 25 binaries, 0 generals, 0 SOSs, and 0 indicators.
Presolve time = 0.00 sec. (0.05 ticks)
Represolve time = 0.00 sec. (0.50 ticks)
Probing time = 0.00 sec. (0.01 ticks)
MIP emphasis: balance optimality and feasibility.
MIP search method: dynamic search.
Parallel mode: opportunistic, using up to 8 threads.
Root relaxation solution time = 0.00 sec. (0.14 ticks)
*     0+    0                            0.0000       10.0000              --- 
      0     0       10.0000     7        0.0000       10.0000       86     --- 
*     0+    0                            4.5833       10.0000           118.18%
      0     0       10.0000     5        4.5833      Fract: 2       87  118.18%
      0     0       10.0000     5        4.5833      Fract: 2       90  118.18%
      0     2       10.0000     5        4.5833       10.0000       90  118.18%
Elapsed time = 0.34 sec. (305.95 ticks, tree = 0.01 MB, solutions = 1)
*    39    13      integral     0        5.0000        9.4545      154   89.09%

Benders cuts applied:  220
Gomory fractional cuts applied:  3

Root node processing (before b&c):
  Real time             =    0.33 sec. (305.67 ticks)
Parallel b&c, 8 threads:
  Real time             =    0.14 sec. (70.66 ticks)
  Sync time (average)   =    0.04 sec.
  Wait time (average)   =    0.00 sec.
                          ------------
Total (root+branch&cut) =    0.47 sec. (376.33 ticks)

Solution pool: 3 solutions saved.

MIP - Integer optimal solution:  Objective =  5.0000000000e+00
Solution time =    0.48 sec.  Iterations = 1165  Nodes = 206 (1)
Deterministic time = 376.91 ticks  (791.75 ticks/sec)


Solution pool written to file 'ngp_a9_b0_n1.sol'.
Current MIP best bound =  5.0000000000e+00 (gap = -0, 0.00%)
